7
2147483647 54 84 82 74 90 93 
54 2147483647 94 8 22 36 75 
84 94 2147483647 18 17 78 29 
82 8 18 2147483647 77 70 81 
74 22 17 77 2147483647 3 58 
90 36 78 70 3 2147483647 13 
93 75 29 81 58 13 2147483647 
